
Gurobi 9.5.0 (linux64) logging started Wed Nov 15 18:15:00 2023

Set parameter LogFile to value "/lustre1/scratch/348/vsc34888/JointResearch/05.Models/06.Benchmarking/D.Representative_days_based_on_RES_and_Demand/3-bus_ByStages_nc2000/openStarNet_3-bus_ByStages_nc2000.log"
Set parameter Method to value 2
Set parameter MIPFocus to value 1
Set parameter Presolve to value 2
Set parameter RINS to value 100
Set parameter MIPGap to value 0.01
Set parameter Threads to value 36
Set parameter TimeLimit to value 604800
Set parameter IterationLimit to value 760000000
Gurobi Optimizer version 9.5.0 build v9.5.0rc5 (linux64)
Thread count: 36 physical cores, 36 logical processors, using up to 36 threads
Optimize a model with 142161 rows, 62769 columns and 393747 nonzeros
Model fingerprint: 0xf471c6ac
Variable types: 62760 continuous, 9 integer (9 binary)
Coefficient statistics:
  Matrix range     [1e-03, 2e+05]
  Objective range  [1e+00, 1e+00]
  Bounds range     [6e-06, 2e+00]
  RHS range        [6e-06, 1e+00]
Presolve removed 58119 rows and 17375 columns
Presolve time: 0.33s
Presolved: 84042 rows, 45394 columns, 297511 nonzeros
Variable types: 45385 continuous, 9 integer (9 binary)
Root relaxation presolved: 84042 rows, 45394 columns, 297511 nonzeros

Root barrier log...

Ordering time: 0.02s

Barrier statistics:
 Dense cols : 9
 AA' NZ     : 7.444e+05
 Factor NZ  : 1.267e+06 (roughly 60 MB of memory)
 Factor Ops : 2.603e+07 (less than 1 second per iteration)
 Threads    : 35

                  Objective                Residual
Iter       Primal          Dual         Primal    Dual     Compl     Time
   0   3.82376176e+05 -1.12468410e+08  1.54e+01 5.79e+00  1.06e+03     1s
   1   2.81610453e+04 -2.25494596e+06  1.07e+00 1.10e-08  3.54e+01     1s
   2   4.04427311e+03 -7.42148374e+05  3.80e-02 6.63e-09  4.96e+00     1s
   3   2.08084781e+03 -3.24515109e+04  8.53e-04 1.06e-09  2.13e-01     1s
   4   3.63221632e+02 -5.30077802e+03  1.23e-05 1.61e-10  3.48e-02     1s
   5   2.58890679e+02 -1.96889799e+03  6.36e-06 5.47e-11  1.37e-02     1s
   6   1.85035642e+02 -5.07077415e+02  3.48e-06 1.29e-11  4.25e-03     1s
   7   1.16322151e+02 -1.34479404e+02  1.36e-06 3.48e-12  1.54e-03     1s
   8   8.24382438e+01  3.44979714e+01  2.79e-07 9.52e-13  2.94e-04     1s
   9   7.04852586e+01  6.18019906e+01  6.78e-08 4.69e-13  5.33e-05     1s
  10   6.93308116e+01  6.37354853e+01  5.28e-08 1.85e-13  3.44e-05     1s
  11   6.86155219e+01  6.42271833e+01  4.07e-08 7.82e-14  2.70e-05     1s
  12   6.80644237e+01  6.43168030e+01  3.05e-08 6.75e-14  2.30e-05     1s
  13   6.79427008e+01  6.44371901e+01  2.81e-08 7.11e-14  2.15e-05     1s
  14   6.70477717e+01  6.47286655e+01  1.22e-08 5.51e-14  1.42e-05     1s
  15   6.67298995e+01  6.48593015e+01  7.16e-09 7.28e-14  1.15e-05     1s
  16   6.65694617e+01  6.52131276e+01  4.98e-09 5.68e-14  8.33e-06     1s
  17   6.64669195e+01  6.52738838e+01  3.81e-09 7.11e-14  7.33e-06     2s
  18   6.64590475e+01  6.52949301e+01  3.73e-09 3.02e-14  7.15e-06     2s
  19   6.64316735e+01  6.54385700e+01  3.35e-09 1.31e-13  6.10e-06     2s
  20   6.64035572e+01  6.54657956e+01  3.03e-09 8.88e-14  5.76e-06     2s
  21   6.63497468e+01  6.55125150e+01  2.45e-09 5.68e-14  5.14e-06     2s
  22   6.62965533e+01  6.56275662e+01  1.80e-09 6.75e-14  4.11e-06     2s
  23   6.62590939e+01  6.56647502e+01  1.41e-09 1.56e-13  3.65e-06     2s
  24   6.62332267e+01  6.57387784e+01  1.10e-09 4.80e-14  3.04e-06     2s
  25   6.62203592e+01  6.57533305e+01  9.56e-10 1.85e-13  2.87e-06     2s
  26   6.62097707e+01  6.57769997e+01  8.45e-10 6.57e-14  2.66e-06     2s
  27   6.62046899e+01  6.57835844e+01  8.03e-10 3.13e-13  2.59e-06     2s
  28   6.62003494e+01  6.57939069e+01  7.70e-10 5.68e-14  2.50e-06     2s
  29   6.61915030e+01  6.58548507e+01  6.90e-10 4.26e-14  2.07e-06     2s
  30   6.61621417e+01  6.59427134e+01  3.68e-10 8.53e-14  1.35e-06     2s
  31   6.61475203e+01  6.59480298e+01  2.53e-10 2.27e-13  1.23e-06     2s
  32   6.61363307e+01  6.60573971e+01  1.60e-10 5.68e-14  4.85e-07     2s
  33   6.61264512e+01  6.60595477e+01  1.08e-09 7.11e-14  4.11e-07     2s
  34   6.61215254e+01  6.61049659e+01  5.35e-10 1.99e-13  1.02e-07     2s
  35   6.61185483e+01  6.61153502e+01  2.36e-10 3.84e-13  1.96e-08     2s
  36   6.61163251e+01  6.61163182e+01  2.40e-11 5.33e-14  4.28e-11     2s
  37   6.61163211e+01  6.61163211e+01  5.04e-13 3.74e-13  4.49e-17     2s

Barrier solved model in 37 iterations and 2.50 seconds (2.06 work units)
Optimal objective 6.61163211e+01


Root relaxation: objective 6.611632e+01, 8010 iterations, 2.28 seconds (1.98 work units)

    Nodes    |    Current Node    |     Objective Bounds      |     Work
 Expl Unexpl |  Obj  Depth IntInf | Incumbent    BestBd   Gap | It/Node Time

     0     0   66.11632    0    3          -   66.11632      -     -    2s
H    0     0                      75.2693460   66.11632  12.2%     -    3s
     0     0   66.11632    0    3   75.26935   66.11632  12.2%     -    3s
H    0     0                      66.4141923   66.11632  0.45%     -    6s

Explored 1 nodes (8010 simplex iterations) in 6.95 seconds (7.18 work units)
Thread count was 36 (of 36 available processors)

Solution count 2: 66.4142 75.2693 

Optimal solution found (tolerance 1.00e-02)
Best objective 6.641419233249e+01, best bound 6.611632112147e+01, gap 0.4485%

Gurobi 9.5.0 (linux64) logging started Wed Nov 15 18:20:52 2023

Set parameter LogFile to value "/lustre1/scratch/348/vsc34888/JointResearch/05.Models/06.Benchmarking/D.Representative_days_based_on_RES_and_Demand/3-bus_ByStages_nc2000/openStarNet_3-bus_ByStages_nc2000.log"
Set parameter Method to value 2
Set parameter MIPFocus to value 1
Set parameter Presolve to value 2
Set parameter RINS to value 100
Set parameter MIPGap to value 0.01
Set parameter Threads to value 36
Set parameter TimeLimit to value 604800
Set parameter IterationLimit to value 760000000
No parameters matching 'relax_integrality' found
Gurobi Optimizer version 9.5.0 build v9.5.0rc5 (linux64)
Thread count: 36 physical cores, 36 logical processors, using up to 36 threads
Optimize a model with 142161 rows, 62760 columns and 321702 nonzeros
Model fingerprint: 0xe386dd4d
Coefficient statistics:
  Matrix range     [1e-03, 2e+05]
  Objective range  [1e+00, 1e+00]
  Bounds range     [6e-06, 2e+00]
  RHS range        [6e-06, 1e+00]
Presolve removed 128154 rows and 37444 columns
Presolve time: 0.10s
Presolved: 14007 rows, 25316 columns, 51329 nonzeros

Ordering time: 0.00s

Barrier statistics:
 AA' NZ     : 3.402e+04
 Factor NZ  : 5.603e+04 (roughly 16 MB of memory)
 Factor Ops : 2.801e+05 (less than 1 second per iteration)
 Threads    : 1

                  Objective                Residual
Iter       Primal          Dual         Primal    Dual     Compl     Time
   0   4.41681717e+05 -1.15712081e+08  3.93e+01 1.96e+01  3.44e+03     0s
   1   2.18452313e+04 -1.93140095e+06  2.41e+00 2.08e-13  9.01e+01     0s
   2   2.33938515e+03 -2.32843192e+05  2.59e-02 3.69e-13  5.09e+00     0s
   3   1.52591325e+03 -6.19075411e+03  5.88e-04 1.28e-13  1.53e-01     0s
   4   3.16326879e+02 -1.24478116e+03  3.46e-05 6.68e-13  3.08e-02     0s
   5   2.08735536e+02 -7.91037537e+02  1.32e-05 4.22e-13  1.97e-02     0s
   6   1.52774271e+02 -3.11700780e+02  5.76e-06 1.94e-13  9.17e-03     0s
   7   1.07426343e+02 -8.22478115e+01  2.10e-06 9.94e-14  3.75e-03     0s
   8   8.06377088e+01 -3.90943782e-01  6.18e-07 4.25e-14  1.60e-03     0s
   9   7.00515464e+01  5.50446802e+01  1.18e-07 3.19e-14  2.96e-04     0s
  10   6.74393682e+01  6.35922056e+01  3.12e-08 4.26e-14  7.60e-05     0s
  11   6.65885006e+01  6.62712628e+01  7.91e-09 5.68e-14  6.27e-06     0s
  12   6.64207560e+01  6.64095592e+01  1.53e-08 5.68e-14  2.21e-07     0s
  13   6.64142011e+01  6.64141559e+01  4.90e-09 2.84e-14  8.93e-10     0s
  14   6.64141923e+01  6.64141923e+01  1.68e-09 4.26e-14  3.51e-14     0s

Barrier solved model in 14 iterations and 0.20 seconds (0.21 work units)
Optimal objective 6.64141923e+01

Crossover log...

      83 DPushes remaining with DInf 0.0000000e+00                 0s
       0 DPushes remaining with DInf 0.0000000e+00                 0s

    2001 PPushes remaining with PInf 0.0000000e+00                 0s
       0 PPushes remaining with PInf 0.0000000e+00                 0s

  Push phase complete: Pinf 0.0000000e+00, Dinf 9.8608621e-14      0s

Iteration    Objective       Primal Inf.    Dual Inf.      Time
    2087    6.6414192e+01   0.000000e+00   0.000000e+00      0s

Solved in 2087 iterations and 0.29 seconds (0.27 work units)
Optimal objective  6.641419233e+01
